p edge 55
e 0 17
e 0 28
e 0 33
e 0 45
e 0 50
e 0 54
e 1 18
e 1 20
e 1 22
e 1 27
e 1 43
e 1 49
e 2 6
e 2 22
e 2 26
e 2 36
e 2 49
e 3 10
e 3 12
e 3 38
e 3 40
e 3 41
e 3 48
e 4 8
e 4 13
e 5 7
e 5 9
e 5 20
e 5 27
e 5 32
e 5 46
e 6 9
e 6 22
e 6 36
e 6 42
e 7 9
e 7 32
e 7 51
e 8 13
e 8 18
e 8 30
e 8 43
e 8 52
e 9 20
e 9 22
e 9 42
e 9 51
e 10 12
e 10 15
e 10 30
e 10 43
e 10 47
e 10 48
e 11 16
e 11 32
e 11 37
e 11 46
e 12 30
e 12 41
e 13 17
e 13 52
e 13 54
e 14 25
e 14 53
e 15 27
e 15 43
e 15 46
e 15 47
e 16 37
e 16 40
e 16 46
e 16 47
e 17 26
e 17 33
e 17 52
e 17 54
e 18 26
e 18 43
e 18 49
e 18 52
e 19 31
e 19 34
e 19 36
e 20 22
e 20 27
e 21 24
e 21 39
e 22 49
e 23 26
e 23 28
e 23 29
e 23 31
e 23 33
e 23 34
e 23 50
e 24 35
e 25 44
e 26 31
e 26 33
e 26 36
e 26 49
e 26 52
e 27 43
e 27 46
e 28 29
e 28 45
e 28 50
e 29 34
e 30 43
e 31 34
e 31 36
e 32 35
e 32 37
e 32 46
e 33 50
e 36 42
e 37 40
e 38 44
e 40 47
e 40 48
e 41 44
e 42 51
e 45 54
e 46 47
e 47 48
c k 2
